(set-logic QF_S)
(declare-fun var0 () String)
(declare-fun var1 () Int)
(declare-fun var2 () Bool)
(declare-fun var3 () String)
(declare-fun var4 () Int)
(declare-fun var5 () Bool)
(declare-fun var6 () String)
(declare-fun var7 () Int)
(declare-fun var8 () Bool)
(assert (not var8))
(assert (str.in.re var6 re.allchar))
(assert (>= var7 var1))
(assert (str.contains (str.at (str.substr var0 var1 var4) (str.indexof "\\L`^a0{S1V" var0 var1)) (str.replace (str.replace var0 var0 var6) (str.substr "c3Cj<Bm(x`" var7 var4) (str.substr var0 var7 var7))))
(check-sat)